<instance format="XCSP3" type="COP">
  <variables>
    <array id="x" note="x[i,j] is 1 iff the jth node in the ith row is selected" size="[10][10]"> 0 1 </array>
  </variables>
  <constraints>
    <group>
      <sum>
        <list> %0 %1 %2 </list>
        <condition> (le,2) </condition>
      </sum>
      <args> x[0..1][0] x[1][1] </args>
      <args> x[0][0] x[2][0] x[2][2] </args>
      <args> x[1][0] x[2][1] x[1][1] </args>
      <args> x[0][0] x[3][0] x[3][3] </args>
      <args> x[1][0] x[3][1] x[2][2] </args>
      <args> x[2][0] x[3][2] x[1][1] </args>
      <args> x[0][0] x[4][0] x[4][4] </args>
      <args> x[1][0] x[4][1] x[3][3] </args>
      <args> x[2][0] x[4][2] x[2][2] </args>
      <args> x[3][0] x[4][3] x[1][1] </args>
      <args> x[0][0] x[5][0] x[5][5] </args>
      <args> x[1][0] x[5][1] x[4][4] </args>
      <args> x[2][0] x[5][2] x[3][3] </args>
      <args> x[3][0] x[5][3] x[2][2] </args>
      <args> x[4][0] x[5][4] x[1][1] </args>
      <args> x[0][0] x[6][0] x[6][6] </args>
      <args> x[1][0] x[6][1] x[5][5] </args>
      <args> x[2][0] x[6][2] x[4][4] </args>
      <args> x[3][0] x[6][3] x[3][3] </args>
      <args> x[4][0] x[6][4] x[2][2] </args>
      <args> x[5][0] x[6][5] x[1][1] </args>
      <args> x[0][0] x[7][0] x[7][7] </args>
      <args> x[1][0] x[7][1] x[6][6] </args>
      <args> x[2][0] x[7][2] x[5][5] </args>
      <args> x[3][0] x[7][3] x[4][4] </args>
      <args> x[4][0] x[7][4] x[3][3] </args>
      <args> x[5][0] x[7][5] x[2][2] </args>
      <args> x[6][0] x[7][6] x[1][1] </args>
      <args> x[0][0] x[8][0] x[8][8] </args>
      <args> x[1][0] x[8][1] x[7][7] </args>
      <args> x[2][0] x[8][2] x[6][6] </args>
      <args> x[3][0] x[8][3] x[5][5] </args>
      <args> x[4][0] x[8][4] x[4][4] </args>
      <args> x[5][0] x[8][5] x[3][3] </args>
      <args> x[6][0] x[8][6] x[2][2] </args>
      <args> x[7][0] x[8][7] x[1][1] </args>
      <args> x[0][0] x[9][0] x[9][9] </args>
      <args> x[1][0] x[9][1] x[8][8] </args>
      <args> x[2][0] x[9][2] x[7][7] </args>
      <args> x[3][0] x[9][3] x[6][6] </args>
      <args> x[4][0] x[9][4] x[5][5] </args>
      <args> x[5][0] x[9][5] x[4][4] </args>
      <args> x[6][0] x[9][6] x[3][3] </args>
      <args> x[7][0] x[9][7] x[2][2] </args>
      <args> x[8][0] x[9][8] x[1][1] </args>
      <args> x[1..2][0] x[2][1] </args>
      <args> x[1][0] x[3][0] x[3][2] </args>
      <args> x[2][0] x[3][1] x[2][1] </args>
      <args> x[1][0] x[4][0] x[4][3] </args>
      <args> x[2][0] x[4][1] x[3][2] </args>
      <args> x[3][0] x[4][2] x[2][1] </args>
      <args> x[1][0] x[5][0] x[5][4] </args>
      <args> x[2][0] x[5][1] x[4][3] </args>
      <args> x[3][0] x[5][2] x[3][2] </args>
      <args> x[4][0] x[5][3] x[2][1] </args>
      <args> x[1][0] x[6][0] x[6][5] </args>
      <args> x[2][0] x[6][1] x[5][4] </args>
      <args> x[3][0] x[6][2] x[4][3] </args>
      <args> x[4][0] x[6][3] x[3][2] </args>
      <args> x[5][0] x[6][4] x[2][1] </args>
      <args> x[1][0] x[7][0] x[7][6] </args>
      <args> x[2][0] x[7][1] x[6][5] </args>
      <args> x[3][0] x[7][2] x[5][4] </args>
      <args> x[4][0] x[7][3] x[4][3] </args>
      <args> x[5][0] x[7][4] x[3][2] </args>
      <args> x[6][0] x[7][5] x[2][1] </args>
      <args> x[1][0] x[8][0] x[8][7] </args>
      <args> x[2][0] x[8][1] x[7][6] </args>
      <args> x[3][0] x[8][2] x[6][5] </args>
      <args> x[4][0] x[8][3] x[5][4] </args>
      <args> x[5][0] x[8][4] x[4][3] </args>
      <args> x[6][0] x[8][5] x[3][2] </args>
      <args> x[7][0] x[8][6] x[2][1] </args>
      <args> x[1][0] x[9][0] x[9][8] </args>
      <args> x[2][0] x[9][1] x[8][7] </args>
      <args> x[3][0] x[9][2] x[7][6] </args>
      <args> x[4][0] x[9][3] x[6][5] </args>
      <args> x[5][0] x[9][4] x[5][4] </args>
      <args> x[6][0] x[9][5] x[4][3] </args>
      <args> x[7][0] x[9][6] x[3][2] </args>
      <args> x[8][0] x[9][7] x[2][1] </args>
      <args> x[1..2][1] x[2][2] </args>
      <args> x[1][1] x[3][1] x[3][3] </args>
      <args> x[2][1] x[3][2] x[2][2] </args>
      <args> x[1][1] x[4][1] x[4][4] </args>
      <args> x[2][1] x[4][2] x[3][3] </args>
      <args> x[3][1] x[4][3] x[2][2] </args>
      <args> x[1][1] x[5][1] x[5][5] </args>
      <args> x[2][1] x[5][2] x[4][4] </args>
      <args> x[3][1] x[5][3] x[3][3] </args>
      <args> x[4][1] x[5][4] x[2][2] </args>
      <args> x[1][1] x[6][1] x[6][6] </args>
      <args> x[2][1] x[6][2] x[5][5] </args>
      <args> x[3][1] x[6][3] x[4][4] </args>
      <args> x[4][1] x[6][4] x[3][3] </args>
      <args> x[5][1] x[6][5] x[2][2] </args>
      <args> x[1][1] x[7][1] x[7][7] </args>
      <args> x[2][1] x[7][2] x[6][6] </args>
      <args> x[3][1] x[7][3] x[5][5] </args>
      <args> x[4][1] x[7][4] x[4][4] </args>
      <args> x[5][1] x[7][5] x[3][3] </args>
      <args> x[6][1] x[7][6] x[2][2] </args>
      <args> x[1][1] x[8][1] x[8][8] </args>
      <args> x[2][1] x[8][2] x[7][7] </args>
      <args> x[3][1] x[8][3] x[6][6] </args>
      <args> x[4][1] x[8][4] x[5][5] </args>
      <args> x[5][1] x[8][5] x[4][4] </args>
      <args> x[6][1] x[8][6] x[3][3] </args>
      <args> x[7][1] x[8][7] x[2][2] </args>
      <args> x[1][1] x[9][1] x[9][9] </args>
      <args> x[2][1] x[9][2] x[8][8] </args>
      <args> x[3][1] x[9][3] x[7][7] </args>
      <args> x[4][1] x[9][4] x[6][6] </args>
      <args> x[5][1] x[9][5] x[5][5] </args>
      <args> x[6][1] x[9][6] x[4][4] </args>
      <args> x[7][1] x[9][7] x[3][3] </args>
      <args> x[8][1] x[9][8] x[2][2] </args>
      <args> x[2..3][0] x[3][1] </args>
      <args> x[2][0] x[4][0] x[4][2] </args>
      <args> x[3][0] x[4][1] x[3][1] </args>
      <args> x[2][0] x[5][0] x[5][3] </args>
      <args> x[3][0] x[5][1] x[4][2] </args>
      <args> x[4][0] x[5][2] x[3][1] </args>
      <args> x[2][0] x[6][0] x[6][4] </args>
      <args> x[3][0] x[6][1] x[5][3] </args>
      <args> x[4][0] x[6][2] x[4][2] </args>
      <args> x[5][0] x[6][3] x[3][1] </args>
      <args> x[2][0] x[7][0] x[7][5] </args>
      <args> x[3][0] x[7][1] x[6][4] </args>
      <args> x[4][0] x[7][2] x[5][3] </args>
      <args> x[5][0] x[7][3] x[4][2] </args>
      <args> x[6][0] x[7][4] x[3][1] </args>
      <args> x[2][0] x[8][0] x[8][6] </args>
      <args> x[3][0] x[8][1] x[7][5] </args>
      <args> x[4][0] x[8][2] x[6][4] </args>
      <args> x[5][0] x[8][3] x[5][3] </args>
      <args> x[6][0] x[8][4] x[4][2] </args>
      <args> x[7][0] x[8][5] x[3][1] </args>
      <args> x[2][0] x[9][0] x[9][7] </args>
      <args> x[3][0] x[9][1] x[8][6] </args>
      <args> x[4][0] x[9][2] x[7][5] </args>
      <args> x[5][0] x[9][3] x[6][4] </args>
      <args> x[6][0] x[9][4] x[5][3] </args>
      <args> x[7][0] x[9][5] x[4][2] </args>
      <args> x[8][0] x[9][6] x[3][1] </args>
      <args> x[2..3][1] x[3][2] </args>
      <args> x[2][1] x[4][1] x[4][3] </args>
      <args> x[3][1] x[4][2] x[3][2] </args>
      <args> x[2][1] x[5][1] x[5][4] </args>
      <args> x[3][1] x[5][2] x[4][3] </args>
      <args> x[4][1] x[5][3] x[3][2] </args>
      <args> x[2][1] x[6][1] x[6][5] </args>
      <args> x[3][1] x[6][2] x[5][4] </args>
      <args> x[4][1] x[6][3] x[4][3] </args>
      <args> x[5][1] x[6][4] x[3][2] </args>
      <args> x[2][1] x[7][1] x[7][6] </args>
      <args> x[3][1] x[7][2] x[6][5] </args>
      <args> x[4][1] x[7][3] x[5][4] </args>
      <args> x[5][1] x[7][4] x[4][3] </args>
      <args> x[6][1] x[7][5] x[3][2] </args>
      <args> x[2][1] x[8][1] x[8][7] </args>
      <args> x[3][1] x[8][2] x[7][6] </args>
      <args> x[4][1] x[8][3] x[6][5] </args>
      <args> x[5][1] x[8][4] x[5][4] </args>
      <args> x[6][1] x[8][5] x[4][3] </args>
      <args> x[7][1] x[8][6] x[3][2] </args>
      <args> x[2][1] x[9][1] x[9][8] </args>
      <args> x[3][1] x[9][2] x[8][7] </args>
      <args> x[4][1] x[9][3] x[7][6] </args>
      <args> x[5][1] x[9][4] x[6][5] </args>
      <args> x[6][1] x[9][5] x[5][4] </args>
      <args> x[7][1] x[9][6] x[4][3] </args>
      <args> x[8][1] x[9][7] x[3][2] </args>
      <args> x[2..3][2] x[3][3] </args>
      <args> x[2][2] x[4][2] x[4][4] </args>
      <args> x[3][2] x[4][3] x[3][3] </args>
      <args> x[2][2] x[5][2] x[5][5] </args>
      <args> x[3][2] x[5][3] x[4][4] </args>
      <args> x[4][2] x[5][4] x[3][3] </args>
      <args> x[2][2] x[6][2] x[6][6] </args>
      <args> x[3][2] x[6][3] x[5][5] </args>
      <args> x[4][2] x[6][4] x[4][4] </args>
      <args> x[5][2] x[6][5] x[3][3] </args>
      <args> x[2][2] x[7][2] x[7][7] </args>
      <args> x[3][2] x[7][3] x[6][6] </args>
      <args> x[4][2] x[7][4] x[5][5] </args>
      <args> x[5][2] x[7][5] x[4][4] </args>
      <args> x[6][2] x[7][6] x[3][3] </args>
      <args> x[2][2] x[8][2] x[8][8] </args>
      <args> x[3][2] x[8][3] x[7][7] </args>
      <args> x[4][2] x[8][4] x[6][6] </args>
      <args> x[5][2] x[8][5] x[5][5] </args>
      <args> x[6][2] x[8][6] x[4][4] </args>
      <args> x[7][2] x[8][7] x[3][3] </args>
      <args> x[2][2] x[9][2] x[9][9] </args>
      <args> x[3][2] x[9][3] x[8][8] </args>
      <args> x[4][2] x[9][4] x[7][7] </args>
      <args> x[5][2] x[9][5] x[6][6] </args>
      <args> x[6][2] x[9][6] x[5][5] </args>
      <args> x[7][2] x[9][7] x[4][4] </args>
      <args> x[8][2] x[9][8] x[3][3] </args>
      <args> x[3..4][0] x[4][1] </args>
      <args> x[3][0] x[5][0] x[5][2] </args>
      <args> x[4][0] x[5][1] x[4][1] </args>
      <args> x[3][0] x[6][0] x[6][3] </args>
      <args> x[4][0] x[6][1] x[5][2] </args>
      <args> x[5][0] x[6][2] x[4][1] </args>
      <args> x[3][0] x[7][0] x[7][4] </args>
      <args> x[4][0] x[7][1] x[6][3] </args>
      <args> x[5][0] x[7][2] x[5][2] </args>
      <args> x[6][0] x[7][3] x[4][1] </args>
      <args> x[3][0] x[8][0] x[8][5] </args>
      <args> x[4][0] x[8][1] x[7][4] </args>
      <args> x[5][0] x[8][2] x[6][3] </args>
      <args> x[6][0] x[8][3] x[5][2] </args>
      <args> x[7][0] x[8][4] x[4][1] </args>
      <args> x[3][0] x[9][0] x[9][6] </args>
      <args> x[4][0] x[9][1] x[8][5] </args>
      <args> x[5][0] x[9][2] x[7][4] </args>
      <args> x[6][0] x[9][3] x[6][3] </args>
      <args> x[7][0] x[9][4] x[5][2] </args>
      <args> x[8][0] x[9][5] x[4][1] </args>
      <args> x[3..4][1] x[4][2] </args>
      <args> x[3][1] x[5][1] x[5][3] </args>
      <args> x[4][1] x[5][2] x[4][2] </args>
      <args> x[3][1] x[6][1] x[6][4] </args>
      <args> x[4][1] x[6][2] x[5][3] </args>
      <args> x[5][1] x[6][3] x[4][2] </args>
      <args> x[3][1] x[7][1] x[7][5] </args>
      <args> x[4][1] x[7][2] x[6][4] </args>
      <args> x[5][1] x[7][3] x[5][3] </args>
      <args> x[6][1] x[7][4] x[4][2] </args>
      <args> x[3][1] x[8][1] x[8][6] </args>
      <args> x[4][1] x[8][2] x[7][5] </args>
      <args> x[5][1] x[8][3] x[6][4] </args>
      <args> x[6][1] x[8][4] x[5][3] </args>
      <args> x[7][1] x[8][5] x[4][2] </args>
      <args> x[3][1] x[9][1] x[9][7] </args>
      <args> x[4][1] x[9][2] x[8][6] </args>
      <args> x[5][1] x[9][3] x[7][5] </args>
      <args> x[6][1] x[9][4] x[6][4] </args>
      <args> x[7][1] x[9][5] x[5][3] </args>
      <args> x[8][1] x[9][6] x[4][2] </args>
      <args> x[3..4][2] x[4][3] </args>
      <args> x[3][2] x[5][2] x[5][4] </args>
      <args> x[4][2] x[5][3] x[4][3] </args>
      <args> x[3][2] x[6][2] x[6][5] </args>
      <args> x[4][2] x[6][3] x[5][4] </args>
      <args> x[5][2] x[6][4] x[4][3] </args>
      <args> x[3][2] x[7][2] x[7][6] </args>
      <args> x[4][2] x[7][3] x[6][5] </args>
      <args> x[5][2] x[7][4] x[5][4] </args>
      <args> x[6][2] x[7][5] x[4][3] </args>
      <args> x[3][2] x[8][2] x[8][7] </args>
      <args> x[4][2] x[8][3] x[7][6] </args>
      <args> x[5][2] x[8][4] x[6][5] </args>
      <args> x[6][2] x[8][5] x[5][4] </args>
      <args> x[7][2] x[8][6] x[4][3] </args>
      <args> x[3][2] x[9][2] x[9][8] </args>
      <args> x[4][2] x[9][3] x[8][7] </args>
      <args> x[5][2] x[9][4] x[7][6] </args>
      <args> x[6][2] x[9][5] x[6][5] </args>
      <args> x[7][2] x[9][6] x[5][4] </args>
      <args> x[8][2] x[9][7] x[4][3] </args>
      <args> x[3..4][3] x[4][4] </args>
      <args> x[3][3] x[5][3] x[5][5] </args>
      <args> x[4][3] x[5][4] x[4][4] </args>
      <args> x[3][3] x[6][3] x[6][6] </args>
      <args> x[4][3] x[6][4] x[5][5] </args>
      <args> x[5][3] x[6][5] x[4][4] </args>
      <args> x[3][3] x[7][3] x[7][7] </args>
      <args> x[4][3] x[7][4] x[6][6] </args>
      <args> x[5][3] x[7][5] x[5][5] </args>
      <args> x[6][3] x[7][6] x[4][4] </args>
      <args> x[3][3] x[8][3] x[8][8] </args>
      <args> x[4][3] x[8][4] x[7][7] </args>
      <args> x[5][3] x[8][5] x[6][6] </args>
      <args> x[6][3] x[8][6] x[5][5] </args>
      <args> x[7][3] x[8][7] x[4][4] </args>
      <args> x[3][3] x[9][3] x[9][9] </args>
      <args> x[4][3] x[9][4] x[8][8] </args>
      <args> x[5][3] x[9][5] x[7][7] </args>
      <args> x[6][3] x[9][6] x[6][6] </args>
      <args> x[7][3] x[9][7] x[5][5] </args>
      <args> x[8][3] x[9][8] x[4][4] </args>
      <args> x[4..5][0] x[5][1] </args>
      <args> x[4][0] x[6][0] x[6][2] </args>
      <args> x[5][0] x[6][1] x[5][1] </args>
      <args> x[4][0] x[7][0] x[7][3] </args>
      <args> x[5][0] x[7][1] x[6][2] </args>
      <args> x[6][0] x[7][2] x[5][1] </args>
      <args> x[4][0] x[8][0] x[8][4] </args>
      <args> x[5][0] x[8][1] x[7][3] </args>
      <args> x[6][0] x[8][2] x[6][2] </args>
      <args> x[7][0] x[8][3] x[5][1] </args>
      <args> x[4][0] x[9][0] x[9][5] </args>
      <args> x[5][0] x[9][1] x[8][4] </args>
      <args> x[6][0] x[9][2] x[7][3] </args>
      <args> x[7][0] x[9][3] x[6][2] </args>
      <args> x[8][0] x[9][4] x[5][1] </args>
      <args> x[4..5][1] x[5][2] </args>
      <args> x[4][1] x[6][1] x[6][3] </args>
      <args> x[5][1] x[6][2] x[5][2] </args>
      <args> x[4][1] x[7][1] x[7][4] </args>
      <args> x[5][1] x[7][2] x[6][3] </args>
      <args> x[6][1] x[7][3] x[5][2] </args>
      <args> x[4][1] x[8][1] x[8][5] </args>
      <args> x[5][1] x[8][2] x[7][4] </args>
      <args> x[6][1] x[8][3] x[6][3] </args>
      <args> x[7][1] x[8][4] x[5][2] </args>
      <args> x[4][1] x[9][1] x[9][6] </args>
      <args> x[5][1] x[9][2] x[8][5] </args>
      <args> x[6][1] x[9][3] x[7][4] </args>
      <args> x[7][1] x[9][4] x[6][3] </args>
      <args> x[8][1] x[9][5] x[5][2] </args>
      <args> x[4..5][2] x[5][3] </args>
      <args> x[4][2] x[6][2] x[6][4] </args>
      <args> x[5][2] x[6][3] x[5][3] </args>
      <args> x[4][2] x[7][2] x[7][5] </args>
      <args> x[5][2] x[7][3] x[6][4] </args>
      <args> x[6][2] x[7][4] x[5][3] </args>
      <args> x[4][2] x[8][2] x[8][6] </args>
      <args> x[5][2] x[8][3] x[7][5] </args>
      <args> x[6][2] x[8][4] x[6][4] </args>
      <args> x[7][2] x[8][5] x[5][3] </args>
      <args> x[4][2] x[9][2] x[9][7] </args>
      <args> x[5][2] x[9][3] x[8][6] </args>
      <args> x[6][2] x[9][4] x[7][5] </args>
      <args> x[7][2] x[9][5] x[6][4] </args>
      <args> x[8][2] x[9][6] x[5][3] </args>
      <args> x[4..5][3] x[5][4] </args>
      <args> x[4][3] x[6][3] x[6][5] </args>
      <args> x[5][3] x[6][4] x[5][4] </args>
      <args> x[4][3] x[7][3] x[7][6] </args>
      <args> x[5][3] x[7][4] x[6][5] </args>
      <args> x[6][3] x[7][5] x[5][4] </args>
      <args> x[4][3] x[8][3] x[8][7] </args>
      <args> x[5][3] x[8][4] x[7][6] </args>
      <args> x[6][3] x[8][5] x[6][5] </args>
      <args> x[7][3] x[8][6] x[5][4] </args>
      <args> x[4][3] x[9][3] x[9][8] </args>
      <args> x[5][3] x[9][4] x[8][7] </args>
      <args> x[6][3] x[9][5] x[7][6] </args>
      <args> x[7][3] x[9][6] x[6][5] </args>
      <args> x[8][3] x[9][7] x[5][4] </args>
      <args> x[4..5][4] x[5][5] </args>
      <args> x[4][4] x[6][4] x[6][6] </args>
      <args> x[5][4] x[6][5] x[5][5] </args>
      <args> x[4][4] x[7][4] x[7][7] </args>
      <args> x[5][4] x[7][5] x[6][6] </args>
      <args> x[6][4] x[7][6] x[5][5] </args>
      <args> x[4][4] x[8][4] x[8][8] </args>
      <args> x[5][4] x[8][5] x[7][7] </args>
      <args> x[6][4] x[8][6] x[6][6] </args>
      <args> x[7][4] x[8][7] x[5][5] </args>
      <args> x[4][4] x[9][4] x[9][9] </args>
      <args> x[5][4] x[9][5] x[8][8] </args>
      <args> x[6][4] x[9][6] x[7][7] </args>
      <args> x[7][4] x[9][7] x[6][6] </args>
      <args> x[8][4] x[9][8] x[5][5] </args>
      <args> x[5..6][0] x[6][1] </args>
      <args> x[5][0] x[7][0] x[7][2] </args>
      <args> x[6][0] x[7][1] x[6][1] </args>
      <args> x[5][0] x[8][0] x[8][3] </args>
      <args> x[6][0] x[8][1] x[7][2] </args>
      <args> x[7][0] x[8][2] x[6][1] </args>
      <args> x[5][0] x[9][0] x[9][4] </args>
      <args> x[6][0] x[9][1] x[8][3] </args>
      <args> x[7][0] x[9][2] x[7][2] </args>
      <args> x[8][0] x[9][3] x[6][1] </args>
      <args> x[5..6][1] x[6][2] </args>
      <args> x[5][1] x[7][1] x[7][3] </args>
      <args> x[6][1] x[7][2] x[6][2] </args>
      <args> x[5][1] x[8][1] x[8][4] </args>
      <args> x[6][1] x[8][2] x[7][3] </args>
      <args> x[7][1] x[8][3] x[6][2] </args>
      <args> x[5][1] x[9][1] x[9][5] </args>
      <args> x[6][1] x[9][2] x[8][4] </args>
      <args> x[7][1] x[9][3] x[7][3] </args>
      <args> x[8][1] x[9][4] x[6][2] </args>
      <args> x[5..6][2] x[6][3] </args>
      <args> x[5][2] x[7][2] x[7][4] </args>
      <args> x[6][2] x[7][3] x[6][3] </args>
      <args> x[5][2] x[8][2] x[8][5] </args>
      <args> x[6][2] x[8][3] x[7][4] </args>
      <args> x[7][2] x[8][4] x[6][3] </args>
      <args> x[5][2] x[9][2] x[9][6] </args>
      <args> x[6][2] x[9][3] x[8][5] </args>
      <args> x[7][2] x[9][4] x[7][4] </args>
      <args> x[8][2] x[9][5] x[6][3] </args>
      <args> x[5..6][3] x[6][4] </args>
      <args> x[5][3] x[7][3] x[7][5] </args>
      <args> x[6][3] x[7][4] x[6][4] </args>
      <args> x[5][3] x[8][3] x[8][6] </args>
      <args> x[6][3] x[8][4] x[7][5] </args>
      <args> x[7][3] x[8][5] x[6][4] </args>
      <args> x[5][3] x[9][3] x[9][7] </args>
      <args> x[6][3] x[9][4] x[8][6] </args>
      <args> x[7][3] x[9][5] x[7][5] </args>
      <args> x[8][3] x[9][6] x[6][4] </args>
      <args> x[5..6][4] x[6][5] </args>
      <args> x[5][4] x[7][4] x[7][6] </args>
      <args> x[6][4] x[7][5] x[6][5] </args>
      <args> x[5][4] x[8][4] x[8][7] </args>
      <args> x[6][4] x[8][5] x[7][6] </args>
      <args> x[7][4] x[8][6] x[6][5] </args>
      <args> x[5][4] x[9][4] x[9][8] </args>
      <args> x[6][4] x[9][5] x[8][7] </args>
      <args> x[7][4] x[9][6] x[7][6] </args>
      <args> x[8][4] x[9][7] x[6][5] </args>
      <args> x[5..6][5] x[6][6] </args>
      <args> x[5][5] x[7][5] x[7][7] </args>
      <args> x[6][5] x[7][6] x[6][6] </args>
      <args> x[5][5] x[8][5] x[8][8] </args>
      <args> x[6][5] x[8][6] x[7][7] </args>
      <args> x[7][5] x[8][7] x[6][6] </args>
      <args> x[5][5] x[9][5] x[9][9] </args>
      <args> x[6][5] x[9][6] x[8][8] </args>
      <args> x[7][5] x[9][7] x[7][7] </args>
      <args> x[8][5] x[9][8] x[6][6] </args>
      <args> x[6..7][0] x[7][1] </args>
      <args> x[6][0] x[8][0] x[8][2] </args>
      <args> x[7][0] x[8][1] x[7][1] </args>
      <args> x[6][0] x[9][0] x[9][3] </args>
      <args> x[7][0] x[9][1] x[8][2] </args>
      <args> x[8][0] x[9][2] x[7][1] </args>
      <args> x[6..7][1] x[7][2] </args>
      <args> x[6][1] x[8][1] x[8][3] </args>
      <args> x[7][1] x[8][2] x[7][2] </args>
      <args> x[6][1] x[9][1] x[9][4] </args>
      <args> x[7][1] x[9][2] x[8][3] </args>
      <args> x[8][1] x[9][3] x[7][2] </args>
      <args> x[6..7][2] x[7][3] </args>
      <args> x[6][2] x[8][2] x[8][4] </args>
      <args> x[7][2] x[8][3] x[7][3] </args>
      <args> x[6][2] x[9][2] x[9][5] </args>
      <args> x[7][2] x[9][3] x[8][4] </args>
      <args> x[8][2] x[9][4] x[7][3] </args>
      <args> x[6..7][3] x[7][4] </args>
      <args> x[6][3] x[8][3] x[8][5] </args>
      <args> x[7][3] x[8][4] x[7][4] </args>
      <args> x[6][3] x[9][3] x[9][6] </args>
      <args> x[7][3] x[9][4] x[8][5] </args>
      <args> x[8][3] x[9][5] x[7][4] </args>
      <args> x[6..7][4] x[7][5] </args>
      <args> x[6][4] x[8][4] x[8][6] </args>
      <args> x[7][4] x[8][5] x[7][5] </args>
      <args> x[6][4] x[9][4] x[9][7] </args>
      <args> x[7][4] x[9][5] x[8][6] </args>
      <args> x[8][4] x[9][6] x[7][5] </args>
      <args> x[6..7][5] x[7][6] </args>
      <args> x[6][5] x[8][5] x[8][7] </args>
      <args> x[7][5] x[8][6] x[7][6] </args>
      <args> x[6][5] x[9][5] x[9][8] </args>
      <args> x[7][5] x[9][6] x[8][7] </args>
      <args> x[8][5] x[9][7] x[7][6] </args>
      <args> x[6..7][6] x[7][7] </args>
      <args> x[6][6] x[8][6] x[8][8] </args>
      <args> x[7][6] x[8][7] x[7][7] </args>
      <args> x[6][6] x[9][6] x[9][9] </args>
      <args> x[7][6] x[9][7] x[8][8] </args>
      <args> x[8][6] x[9][8] x[7][7] </args>
      <args> x[7..8][0] x[8][1] </args>
      <args> x[7][0] x[9][0] x[9][2] </args>
      <args> x[8][0] x[9][1] x[8][1] </args>
      <args> x[7..8][1] x[8][2] </args>
      <args> x[7][1] x[9][1] x[9][3] </args>
      <args> x[8][1] x[9][2] x[8][2] </args>
      <args> x[7..8][2] x[8][3] </args>
      <args> x[7][2] x[9][2] x[9][4] </args>
      <args> x[8][2] x[9][3] x[8][3] </args>
      <args> x[7..8][3] x[8][4] </args>
      <args> x[7][3] x[9][3] x[9][5] </args>
      <args> x[8][3] x[9][4] x[8][4] </args>
      <args> x[7..8][4] x[8][5] </args>
      <args> x[7][4] x[9][4] x[9][6] </args>
      <args> x[8][4] x[9][5] x[8][5] </args>
      <args> x[7..8][5] x[8][6] </args>
      <args> x[7][5] x[9][5] x[9][7] </args>
      <args> x[8][5] x[9][6] x[8][6] </args>
      <args> x[7..8][6] x[8][7] </args>
      <args> x[7][6] x[9][6] x[9][8] </args>
      <args> x[8][6] x[9][7] x[8][7] </args>
      <args> x[7..8][7] x[8][8] </args>
      <args> x[7][7] x[9][7] x[9][9] </args>
      <args> x[8][7] x[9][8] x[8][8] </args>
      <args> x[8..9][0] x[9][1] </args>
      <args> x[8..9][1] x[9][2] </args>
      <args> x[8..9][2] x[9][3] </args>
      <args> x[8..9][3] x[9][4] </args>
      <args> x[8..9][4] x[9][5] </args>
      <args> x[8..9][5] x[9][6] </args>
      <args> x[8..9][6] x[9][7] </args>
      <args> x[8..9][7] x[9][8] </args>
      <args> x[8..9][8] x[9][9] </args>
    </group>
  </constraints>
  <objectives>
    <maximize type="sum"> x[0..1][0] x[1][1] x[2][0..2] x[3][0..3] x[4][0..4] x[5][0..5] x[6][0..6] x[7][0..7] x[8][0..8] x[9][] </maximize>
  </objectives>
</instance>
